45
46
8
82
7
88
31
69
1
50
76
77
3
79
33
81
9
51
30
70
10
62
11
19
48
47
36
49
64
63
90
32
20
66
65
71
35
34
78
29
24
68
80
12
26
40
58
53
101
52
18
83
60
6
94
59
98
91
100
37
92
97
87
57
15
43
42
14
44
38
86
16
61
85
93
99
96
95
13
2
73
21
72
74
22
41
75
56
23
67
39
25
55
4
54
28
27
89
5
84
17
45
